p wcnf 9 33 139
139 1 3 0
139 1 4 0
139 1 5 0
139 1 6 0
139 1 8 0
139 1 9 0
139 2 3 0
139 2 4 0
139 2 5 0
139 2 7 0
139 2 8 0
139 2 9 0
139 3 5 0
139 3 6 0
139 3 7 0
139 3 8 0
139 3 9 0
139 4 5 0
139 5 7 0
139 5 8 0
139 6 7 0
139 7 8 0
139 7 9 0
139 8 9 0
4 -1 0
4 -2 0
3 -3 0
7 -4 0
4 -5 0
7 -6 0
4 -7 0
4 -8 0
5 -9 0
